Academic license - for non-commercial use only - expires 2022-11-10
Using license file /home/benedond/Apps/gurobi/gurobi950/gurobi.lic
Using gurobi.env file
Set parameter Threads to value 1
Changed value of parameter TimeLimit to 300.0
   Prev: inf  Min: 0.0  Max: inf  Default: inf
Gurobi Optimizer version 9.1.2 build v9.1.2rc0 (linux64)
Thread count: 2 physical cores, 4 logical processors, using up to 1 threads
Optimize a model with 880 rows, 820 columns and 3258 nonzeros
Model fingerprint: 0xae07d9b7
Variable types: 20 continuous, 800 integer (800 binary)
Coefficient statistics:
  Matrix range     [1e+00, 2e+02]
  Objective range  [4e+01, 2e+02]
  Bounds range     [1e+00, 1e+00]
  RHS range        [1e+00, 6e+02]
Presolve removed 713 rows and 598 columns
Presolve time: 0.11s
Presolved: 167 rows, 222 columns, 1035 nonzeros
Variable types: 10 continuous, 212 integer (212 binary)
Found heuristic solution: objective 1705.0000000
Found heuristic solution: objective 1782.0000000

Root relaxation: objective 1.830000e+03, 94 iterations, 0.00 seconds

    Nodes    |    Current Node    |     Objective Bounds      |     Work
 Expl Unexpl |  Obj  Depth IntInf | Incumbent    BestBd   Gap | It/Node Time

     0     0 1830.00000    0   20 1782.00000 1830.00000  2.69%     -    0s
     0     0 1830.00000    0   23 1782.00000 1830.00000  2.69%     -    0s
     0     0 1830.00000    0   23 1782.00000 1830.00000  2.69%     -    0s
     0     0 1830.00000    0   19 1782.00000 1830.00000  2.69%     -    0s
     0     0 1830.00000    0   24 1782.00000 1830.00000  2.69%     -    0s
     0     0 1830.00000    0   21 1782.00000 1830.00000  2.69%     -    0s
     0     0 1830.00000    0   21 1782.00000 1830.00000  2.69%     -    0s
     0     2 1830.00000    0   21 1782.00000 1830.00000  2.69%     -    0s
H    4     2                    1787.0000000 1830.00000  2.41%  39.2    0s
H   24    19                    1788.0000000 1830.00000  2.35%  27.0    0s
H   26    21                    1790.0000000 1830.00000  2.23%  25.0    0s
*  218   104              19    1801.0000000 1830.00000  1.61%   9.4    0s
*  221    99              14    1802.0000000 1830.00000  1.55%   9.3    0s
H  635   172                    1804.0000000 1816.00000  0.67%   7.1    0s

Cutting planes:
  Gomory: 1
  Cover: 118
  Implied bound: 8
  Clique: 3
  MIR: 45
  GUB cover: 2
  Relax-and-lift: 5

Explored 1418 nodes (10961 simplex iterations) in 0.55 seconds
Thread count was 1 (of 4 available processors)

Solution count 8: 1804 1802 1801 ... 1705

Optimal solution found (tolerance 1.00e-04)
Best objective 1.804000000000e+03, best bound 1.804000000000e+03, gap 0.0000%
